c DCNF-Autarky [version 0.0.1]. 
c Copyright (c) 2018-2019 Swansea University. 
c 
c Input QBF/DQBF path: Castellini18//toilet_c_10_01.12.qdimacs
c Output SAT Translation Path: /tmp/toilet_c_10_01.12.qdimacs-dcnfAutarky.dimacs
c Input Clause Count (tautology free): 1815
c
c Performing E1-Autarky iteration.
c Remaining clauses count after E-Reduction: 1760
c
c Performing A1-Autarky iteration.
c Running Lingeling ... 
c
c Remaining clauses count after A-Reduction: 1760
c
c Input Parameter (command line, file): 
c input filename   Castellini18//toilet_c_10_01.12.qdimacs
c output filename  /tmp/toilet_c_10_01.12.qdimacs-dcnfAutarky.dimacs
c autarky level    1
c conformity level 0
c encoding type    2
c no.of var        388
c no.of clauses    1815
c no.of taut cls   0
c 
c Output Parameters: 
c remaining no.of clauses  1760
c
c filename pn pc autarky ntaut rpa rpe rpcdiff result
c "Castellini18//toilet_c_10_01.12.qdimacs" 388 1815 "E1+A1" 0 4 373 55 "RED" 
p cnf 388 1760
e 222 223 224 225 226 227 228 229 230 231 232 233 234 235 236 237 238 239 240 241 242 243 244 245 246 247 248 249 250 251 252 253 254 255 256 257 258 259 260 261 262 263 264 265 266 267 268 269 270 271 272 273 274 275 276 277 278 279 280 281 282 283 284 285 286 287 288 289 290 291 292 293 294 295 296 297 298 299 300 301 302 303 304 305 306 307 308 309 310 311 312 313 314 315 316 317 318 319 320 321 322 323 324 325 326 327 328 329 330 331 332 333 334 335 336 337 338 339 340 341 342 343 344 345 346 347 348 349 350 351 352 353 0
a 366 365 364 367 0
e 1 2 3 4 5 6 7 8 9 10 11 12 13 14 15 16 17 18 19 20 21 22 23 24 25 26 27 28 29 30 31 32 33 34 35 36 37 38 39 40 41 42 43 44 45 46 47 48 49 50 51 52 53 54 55 56 57 58 59 60 61 62 63 64 65 66 67 68 69 70 71 72 73 74 75 76 77 78 79 80 81 82 83 84 85 86 87 88 89 90 91 92 93 94 95 96 97 98 99 100 101 102 103 104 105 106 107 108 109 110 111 112 113 114 115 116 117 118 119 120 121 122 123 124 125 126 127 128 129 130 131 132 133 134 135 136 137 138 139 140 141 142 143 144 145 146 147 148 149 150 151 152 153 154 155 156 157 158 159 160 161 162 163 164 165 166 167 168 169 170 171 172 173 174 175 176 177 178 179 180 181 182 183 184 185 186 187 188 189 190 191 192 193 194 195 196 197 198 199 200 201 202 203 204 205 206 207 208 209 210 211 212 213 214 215 216 217 218 219 220 221 354 355 356 357 358 359 360 361 362 363 368 369 370 371 372 373 374 375 376 377 378 379 380 381 382 383 384 385 386 387 388 0
-366 -368 364 365 367 0
-366 -369 364 365 367 0
-366 -370 364 365 367 0
-366 -371 364 365 367 0
-366 -372 364 365 367 0
-366 -373 364 365 367 0
-366 -374 364 365 367 0
-366 364 365 367 375 0
-366 -376 364 365 367 0
-366 -377 364 365 367 0
-364 -365 -367 -368 366 0
-364 -365 -367 -369 366 0
-364 -365 -367 -370 366 0
-364 -365 -367 -371 366 0
-364 -365 -367 -372 366 0
-364 -365 -367 -373 366 0
-364 -365 -367 366 374 0
-364 -365 -367 -375 366 0
-364 -365 -367 -376 366 0
-364 -365 -367 -377 366 0
-364 -365 -368 366 367 0
-364 -365 -369 366 367 0
-364 -365 -370 366 367 0
-364 -365 -371 366 367 0
-364 -365 -372 366 367 0
-364 -365 366 367 373 0
-364 -365 -374 366 367 0
-364 -365 -375 366 367 0
-364 -365 -376 366 367 0
-364 -365 -377 366 367 0
-365 -367 -368 364 366 0
-365 -367 -369 364 366 0
-365 -367 -370 364 366 0
-365 -367 -371 364 366 0
-365 -367 364 366 372 0
-365 -367 -373 364 366 0
-365 -367 -374 364 366 0
-365 -367 -375 364 366 0
-365 -367 -376 364 366 0
-365 -367 -377 364 366 0
-365 -368 364 366 367 0
-365 -369 364 366 367 0
-365 -370 364 366 367 0
-365 364 366 367 371 0
-365 -372 364 366 367 0
-365 -373 364 366 367 0
-365 -374 364 366 367 0
-365 -375 364 366 367 0
-365 -376 364 366 367 0
-365 -377 364 366 367 0
-364 -367 -368 365 366 0
-364 -367 -369 365 366 0
-364 -367 365 366 370 0
-364 -367 -371 365 366 0
-364 -367 -372 365 366 0
-364 -367 -373 365 366 0
-364 -367 -374 365 366 0
-364 -367 -375 365 366 0
-364 -367 -376 365 366 0
-364 -367 -377 365 366 0
-364 -368 365 366 367 0
-364 365 366 367 369 0
-364 -370 365 366 367 0
-364 -371 365 366 367 0
-364 -372 365 366 367 0
-364 -373 365 366 367 0
-364 -374 365 366 367 0
-364 -375 365 366 367 0
-364 -376 365 366 367 0
-364 -377 365 366 367 0
-367 364 365 366 368 0
-367 -369 364 365 366 0
-367 -370 364 365 366 0
-367 -371 364 365 366 0
-367 -372 364 365 366 0
-367 -373 364 365 366 0
-367 -374 364 365 366 0
-367 -375 364 365 366 0
-367 -376 364 365 366 0
-367 -377 364 365 366 0
-368 364 365 366 367 0
-369 364 365 366 367 0
-370 364 365 366 367 0
-371 364 365 366 367 0
-372 364 365 366 367 0
-373 364 365 366 367 0
-374 364 365 366 367 0
-375 364 365 366 367 0
-376 364 365 366 367 0
364 365 366 367 377 0
-366 -367 -368 364 365 0
-366 -367 -369 364 365 0
-366 -367 -370 364 365 0
-366 -367 -371 364 365 0
-366 -367 -372 364 365 0
-366 -367 -373 364 365 0
-366 -367 -374 364 365 0
-366 -367 -375 364 365 0
-366 -367 364 365 376 0
-366 -367 -377 364 365 0
-378 0
-379 0
-380 0
-381 0
-382 0
-383 0
-384 0
-385 0
-386 0
-387 0
-388 0
-222 -388 0
-222 -378 0
-12 -223 0
-1 -223 0
-13 -224 0
-2 -224 0
-14 -225 0
-3 -225 0
-15 -226 0
-4 -226 0
-16 -227 0
-5 -227 0
-17 -228 0
-6 -228 0
-18 -229 0
-7 -229 0
-19 -230 0
-8 -230 0
-20 -231 0
-9 -231 0
-21 -232 0
-10 -232 0
-234 -379 0
-234 -388 0
-33 -235 0
-12 -235 0
-34 -236 0
-13 -236 0
-35 -237 0
-14 -237 0
-36 -238 0
-15 -238 0
-37 -239 0
-16 -239 0
-38 -240 0
-17 -240 0
-39 -241 0
-18 -241 0
-40 -242 0
-19 -242 0
-41 -243 0
-20 -243 0
-42 -244 0
-21 -244 0
-246 -380 0
-246 -388 0
-54 -247 0
-12 -247 0
-55 -248 0
-13 -248 0
-56 -249 0
-14 -249 0
-57 -250 0
-15 -250 0
-58 -251 0
-16 -251 0
-59 -252 0
-17 -252 0
-60 -253 0
-18 -253 0
-61 -254 0
-19 -254 0
-62 -255 0
-20 -255 0
-63 -256 0
-21 -256 0
-258 -381 0
-258 -388 0
-75 -259 0
-12 -259 0
-76 -260 0
-13 -260 0
-77 -261 0
-14 -261 0
-78 -262 0
-15 -262 0
-79 -263 0
-16 -263 0
-80 -264 0
-17 -264 0
-81 -265 0
-18 -265 0
-82 -266 0
-19 -266 0
-83 -267 0
-20 -267 0
-84 -268 0
-21 -268 0
-270 -382 0
-270 -388 0
-96 -271 0
-12 -271 0
-97 -272 0
-13 -272 0
-98 -273 0
-14 -273 0
-99 -274 0
-15 -274 0
-100 -275 0
-16 -275 0
-101 -276 0
-17 -276 0
-102 -277 0
-18 -277 0
-103 -278 0
-19 -278 0
-104 -279 0
-20 -279 0
-105 -280 0
-21 -280 0
-282 -383 0
-282 -388 0
-117 -283 0
-12 -283 0
-118 -284 0
-13 -284 0
-119 -285 0
-14 -285 0
-120 -286 0
-15 -286 0
-121 -287 0
-16 -287 0
-122 -288 0
-17 -288 0
-123 -289 0
-18 -289 0
-124 -290 0
-19 -290 0
-125 -291 0
-20 -291 0
-126 -292 0
-21 -292 0
-294 -384 0
-294 -388 0
-138 -295 0
-12 -295 0
-139 -296 0
-13 -296 0
-140 -297 0
-14 -297 0
-141 -298 0
-15 -298 0
-142 -299 0
-16 -299 0
-143 -300 0
-17 -300 0
-144 -301 0
-18 -301 0
-145 -302 0
-19 -302 0
-146 -303 0
-20 -303 0
-147 -304 0
-21 -304 0
-306 -385 0
-306 -388 0
-159 -307 0
-12 -307 0
-160 -308 0
-13 -308 0
-161 -309 0
-14 -309 0
-162 -310 0
-15 -310 0
-163 -311 0
-16 -311 0
-164 -312 0
-17 -312 0
-165 -313 0
-18 -313 0
-166 -314 0
-19 -314 0
-167 -315 0
-20 -315 0
-168 -316 0
-21 -316 0
-318 -386 0
-318 -388 0
-180 -319 0
-12 -319 0
-181 -320 0
-13 -320 0
-182 -321 0
-14 -321 0
-183 -322 0
-15 -322 0
-184 -323 0
-16 -323 0
-185 -324 0
-17 -324 0
-186 -325 0
-18 -325 0
-187 -326 0
-19 -326 0
-188 -327 0
-20 -327 0
-189 -328 0
-21 -328 0
-330 -387 0
-330 -388 0
-201 -332 0
-12 -332 0
-202 -334 0
-13 -334 0
-203 -336 0
-14 -336 0
-204 -338 0
-15 -338 0
-205 -340 0
-16 -340 0
-206 -342 0
-17 -342 0
-207 -344 0
-18 -344 0
-208 -346 0
-19 -346 0
-209 -348 0
-20 -348 0
-210 -350 0
-21 -350 0
-331 388 0
-333 12 0
-335 13 0
-337 14 0
-339 15 0
-341 16 0
-343 17 0
-345 18 0
-347 19 0
-349 20 0
-351 21 0
-222 12 0
-23 -222 0
-222 1 0
-223 13 0
-24 -223 0
-223 2 0
-224 14 0
-25 -224 0
-224 3 0
-225 15 0
-26 -225 0
-225 4 0
-226 16 0
-27 -226 0
-226 5 0
-227 17 0
-28 -227 0
-227 6 0
-228 18 0
-29 -228 0
-228 7 0
-229 19 0
-30 -229 0
-229 8 0
-230 20 0
-31 -230 0
-230 9 0
-231 21 0
-32 -231 0
-231 10 0
-232 22 0
-232 -354 0
-232 11 0
-234 33 0
-44 -234 0
-234 12 0
-235 34 0
-45 -235 0
-235 13 0
-236 35 0
-46 -236 0
-236 14 0
-237 36 0
-47 -237 0
-237 15 0
-238 37 0
-48 -238 0
-238 16 0
-239 38 0
-49 -239 0
-239 17 0
-240 39 0
-50 -240 0
-240 18 0
-241 40 0
-51 -241 0
-241 19 0
-242 41 0
-52 -242 0
-242 20 0
-243 42 0
-53 -243 0
-243 21 0
-244 43 0
-244 -355 0
-244 22 0
-246 54 0
-65 -246 0
-246 12 0
-247 55 0
-66 -247 0
-247 13 0
-248 56 0
-67 -248 0
-248 14 0
-249 57 0
-68 -249 0
-249 15 0
-250 58 0
-69 -250 0
-250 16 0
-251 59 0
-70 -251 0
-251 17 0
-252 60 0
-71 -252 0
-252 18 0
-253 61 0
-72 -253 0
-253 19 0
-254 62 0
-73 -254 0
-254 20 0
-255 63 0
-74 -255 0
-255 21 0
-256 64 0
-256 -356 0
-256 22 0
-258 75 0
-86 -258 0
-258 12 0
-259 76 0
-87 -259 0
-259 13 0
-260 77 0
-88 -260 0
-260 14 0
-261 78 0
-89 -261 0
-261 15 0
-262 79 0
-90 -262 0
-262 16 0
-263 80 0
-91 -263 0
-263 17 0
-264 81 0
-92 -264 0
-264 18 0
-265 82 0
-93 -265 0
-265 19 0
-266 83 0
-94 -266 0
-266 20 0
-267 84 0
-95 -267 0
-267 21 0
-268 85 0
-268 -357 0
-268 22 0
-270 96 0
-107 -270 0
-270 12 0
-271 97 0
-108 -271 0
-271 13 0
-272 98 0
-109 -272 0
-272 14 0
-273 99 0
-110 -273 0
-273 15 0
-274 100 0
-111 -274 0
-274 16 0
-275 101 0
-112 -275 0
-275 17 0
-276 102 0
-113 -276 0
-276 18 0
-277 103 0
-114 -277 0
-277 19 0
-278 104 0
-115 -278 0
-278 20 0
-279 105 0
-116 -279 0
-279 21 0
-280 106 0
-280 -358 0
-280 22 0
-282 117 0
-128 -282 0
-282 12 0
-283 118 0
-129 -283 0
-283 13 0
-284 119 0
-130 -284 0
-284 14 0
-285 120 0
-131 -285 0
-285 15 0
-286 121 0
-132 -286 0
-286 16 0
-287 122 0
-133 -287 0
-287 17 0
-288 123 0
-134 -288 0
-288 18 0
-289 124 0
-135 -289 0
-289 19 0
-290 125 0
-136 -290 0
-290 20 0
-291 126 0
-137 -291 0
-291 21 0
-292 127 0
-292 -359 0
-292 22 0
-294 138 0
-149 -294 0
-294 12 0
-295 139 0
-150 -295 0
-295 13 0
-296 140 0
-151 -296 0
-296 14 0
-297 141 0
-152 -297 0
-297 15 0
-298 142 0
-153 -298 0
-298 16 0
-299 143 0
-154 -299 0
-299 17 0
-300 144 0
-155 -300 0
-300 18 0
-301 145 0
-156 -301 0
-301 19 0
-302 146 0
-157 -302 0
-302 20 0
-303 147 0
-158 -303 0
-303 21 0
-304 148 0
-304 -360 0
-304 22 0
-306 159 0
-170 -306 0
-306 12 0
-307 160 0
-171 -307 0
-307 13 0
-308 161 0
-172 -308 0
-308 14 0
-309 162 0
-173 -309 0
-309 15 0
-310 163 0
-174 -310 0
-310 16 0
-311 164 0
-175 -311 0
-311 17 0
-312 165 0
-176 -312 0
-312 18 0
-313 166 0
-177 -313 0
-313 19 0
-314 167 0
-178 -314 0
-314 20 0
-315 168 0
-179 -315 0
-315 21 0
-316 169 0
-316 -361 0
-316 22 0
-318 180 0
-191 -318 0
-318 12 0
-319 181 0
-192 -319 0
-319 13 0
-320 182 0
-193 -320 0
-320 14 0
-321 183 0
-194 -321 0
-321 15 0
-322 184 0
-195 -322 0
-322 16 0
-323 185 0
-196 -323 0
-323 17 0
-324 186 0
-197 -324 0
-324 18 0
-325 187 0
-198 -325 0
-325 19 0
-326 188 0
-199 -326 0
-326 20 0
-327 189 0
-200 -327 0
-327 21 0
-328 190 0
-328 -362 0
-328 22 0
-330 201 0
-212 -330 0
-330 12 0
-332 202 0
-213 -332 0
-332 13 0
-334 203 0
-214 -334 0
-334 14 0
-336 204 0
-215 -336 0
-336 15 0
-338 205 0
-216 -338 0
-338 16 0
-340 206 0
-217 -340 0
-340 17 0
-342 207 0
-218 -342 0
-342 18 0
-344 208 0
-219 -344 0
-344 19 0
-346 209 0
-220 -346 0
-346 20 0
-348 210 0
-221 -348 0
-348 21 0
-350 211 0
-350 -363 0
-350 22 0
-12 -331 0
-13 -333 0
-14 -335 0
-15 -337 0
-16 -339 0
-17 -341 0
-18 -343 0
-19 -345 0
-20 -347 0
-21 -349 0
-22 -351 0
-1 222 378 0
-2 1 223 0
-3 2 224 0
-4 3 225 0
-5 4 226 0
-6 5 227 0
-7 6 228 0
-8 7 229 0
-9 8 230 0
-10 9 231 0
-11 10 232 0
-378 1 0
-1 2 0
-2 3 0
-3 4 0
-4 5 0
-5 6 0
-6 7 0
-7 8 0
-8 9 0
-9 10 0
-10 11 0
-12 222 234 246 258 270 282 294 306 318 330 388 0
-13 12 223 235 247 259 271 283 295 307 319 332 0
-14 13 224 236 248 260 272 284 296 308 320 334 0
-15 14 225 237 249 261 273 285 297 309 321 336 0
-16 15 226 238 250 262 274 286 298 310 322 338 0
-17 16 227 239 251 263 275 287 299 311 323 340 0
-18 17 228 240 252 264 276 288 300 312 324 342 0
-19 18 229 241 253 265 277 289 301 313 325 344 0
-20 19 230 242 254 266 278 290 302 314 326 346 0
-21 20 231 243 255 267 279 291 303 315 327 348 0
-22 21 232 244 256 268 280 292 304 316 328 350 0
-388 12 331 0
-12 13 333 0
-13 14 335 0
-14 15 337 0
-15 16 339 0
-16 17 341 0
-17 18 343 0
-18 19 345 0
-19 20 347 0
-20 21 349 0
-21 22 351 0
-23 377 0
-24 23 0
-25 24 0
-26 25 0
-27 26 0
-28 27 0
-29 28 0
-30 29 0
-31 30 0
-32 31 0
-354 32 0
-377 23 222 0
-23 24 223 0
-24 25 224 0
-25 26 225 0
-26 27 226 0
-27 28 227 0
-28 29 228 0
-29 30 229 0
-30 31 230 0
-31 32 231 0
-32 232 354 0
-33 234 379 0
-34 33 235 0
-35 34 236 0
-36 35 237 0
-37 36 238 0
-38 37 239 0
-39 38 240 0
-40 39 241 0
-41 40 242 0
-42 41 243 0
-43 42 244 0
-379 33 0
-33 34 0
-34 35 0
-35 36 0
-36 37 0
-37 38 0
-38 39 0
-39 40 0
-40 41 0
-41 42 0
-42 43 0
-44 368 0
-45 44 0
-46 45 0
-47 46 0
-48 47 0
-49 48 0
-50 49 0
-51 50 0
-52 51 0
-53 52 0
-355 53 0
-368 44 234 0
-44 45 235 0
-45 46 236 0
-46 47 237 0
-47 48 238 0
-48 49 239 0
-49 50 240 0
-50 51 241 0
-51 52 242 0
-52 53 243 0
-53 244 355 0
-54 246 380 0
-55 54 247 0
-56 55 248 0
-57 56 249 0
-58 57 250 0
-59 58 251 0
-60 59 252 0
-61 60 253 0
-62 61 254 0
-63 62 255 0
-64 63 256 0
-380 54 0
-54 55 0
-55 56 0
-56 57 0
-57 58 0
-58 59 0
-59 60 0
-60 61 0
-61 62 0
-62 63 0
-63 64 0
-65 369 0
-66 65 0
-67 66 0
-68 67 0
-69 68 0
-70 69 0
-71 70 0
-72 71 0
-73 72 0
-74 73 0
-356 74 0
-369 65 246 0
-65 66 247 0
-66 67 248 0
-67 68 249 0
-68 69 250 0
-69 70 251 0
-70 71 252 0
-71 72 253 0
-72 73 254 0
-73 74 255 0
-74 256 356 0
-75 258 381 0
-76 75 259 0
-77 76 260 0
-78 77 261 0
-79 78 262 0
-80 79 263 0
-81 80 264 0
-82 81 265 0
-83 82 266 0
-84 83 267 0
-85 84 268 0
-381 75 0
-75 76 0
-76 77 0
-77 78 0
-78 79 0
-79 80 0
-80 81 0
-81 82 0
-82 83 0
-83 84 0
-84 85 0
-86 370 0
-87 86 0
-88 87 0
-89 88 0
-90 89 0
-91 90 0
-92 91 0
-93 92 0
-94 93 0
-95 94 0
-357 95 0
-370 86 258 0
-86 87 259 0
-87 88 260 0
-88 89 261 0
-89 90 262 0
-90 91 263 0
-91 92 264 0
-92 93 265 0
-93 94 266 0
-94 95 267 0
-95 268 357 0
-96 270 382 0
-97 96 271 0
-98 97 272 0
-99 98 273 0
-100 99 274 0
-101 100 275 0
-102 101 276 0
-103 102 277 0
-104 103 278 0
-105 104 279 0
-106 105 280 0
-382 96 0
-96 97 0
-97 98 0
-98 99 0
-99 100 0
-100 101 0
-101 102 0
-102 103 0
-103 104 0
-104 105 0
-105 106 0
-107 371 0
-108 107 0
-109 108 0
-110 109 0
-111 110 0
-112 111 0
-113 112 0
-114 113 0
-115 114 0
-116 115 0
-358 116 0
-371 107 270 0
-107 108 271 0
-108 109 272 0
-109 110 273 0
-110 111 274 0
-111 112 275 0
-112 113 276 0
-113 114 277 0
-114 115 278 0
-115 116 279 0
-116 280 358 0
-117 282 383 0
-118 117 283 0
-119 118 284 0
-120 119 285 0
-121 120 286 0
-122 121 287 0
-123 122 288 0
-124 123 289 0
-125 124 290 0
-126 125 291 0
-127 126 292 0
-383 117 0
-117 118 0
-118 119 0
-119 120 0
-120 121 0
-121 122 0
-122 123 0
-123 124 0
-124 125 0
-125 126 0
-126 127 0
-128 372 0
-129 128 0
-130 129 0
-131 130 0
-132 131 0
-133 132 0
-134 133 0
-135 134 0
-136 135 0
-137 136 0
-359 137 0
-372 128 282 0
-128 129 283 0
-129 130 284 0
-130 131 285 0
-131 132 286 0
-132 133 287 0
-133 134 288 0
-134 135 289 0
-135 136 290 0
-136 137 291 0
-137 292 359 0
-138 294 384 0
-139 138 295 0
-140 139 296 0
-141 140 297 0
-142 141 298 0
-143 142 299 0
-144 143 300 0
-145 144 301 0
-146 145 302 0
-147 146 303 0
-148 147 304 0
-384 138 0
-138 139 0
-139 140 0
-140 141 0
-141 142 0
-142 143 0
-143 144 0
-144 145 0
-145 146 0
-146 147 0
-147 148 0
-149 373 0
-150 149 0
-151 150 0
-152 151 0
-153 152 0
-154 153 0
-155 154 0
-156 155 0
-157 156 0
-158 157 0
-360 158 0
-373 149 294 0
-149 150 295 0
-150 151 296 0
-151 152 297 0
-152 153 298 0
-153 154 299 0
-154 155 300 0
-155 156 301 0
-156 157 302 0
-157 158 303 0
-158 304 360 0
-159 306 385 0
-160 159 307 0
-161 160 308 0
-162 161 309 0
-163 162 310 0
-164 163 311 0
-165 164 312 0
-166 165 313 0
-167 166 314 0
-168 167 315 0
-169 168 316 0
-385 159 0
-159 160 0
-160 161 0
-161 162 0
-162 163 0
-163 164 0
-164 165 0
-165 166 0
-166 167 0
-167 168 0
-168 169 0
-170 374 0
-171 170 0
-172 171 0
-173 172 0
-174 173 0
-175 174 0
-176 175 0
-177 176 0
-178 177 0
-179 178 0
-361 179 0
-374 170 306 0
-170 171 307 0
-171 172 308 0
-172 173 309 0
-173 174 310 0
-174 175 311 0
-175 176 312 0
-176 177 313 0
-177 178 314 0
-178 179 315 0
-179 316 361 0
-180 318 386 0
-181 180 319 0
-182 181 320 0
-183 182 321 0
-184 183 322 0
-185 184 323 0
-186 185 324 0
-187 186 325 0
-188 187 326 0
-189 188 327 0
-190 189 328 0
-386 180 0
-180 181 0
-181 182 0
-182 183 0
-183 184 0
-184 185 0
-185 186 0
-186 187 0
-187 188 0
-188 189 0
-189 190 0
-191 375 0
-192 191 0
-193 192 0
-194 193 0
-195 194 0
-196 195 0
-197 196 0
-198 197 0
-199 198 0
-200 199 0
-362 200 0
-375 191 318 0
-191 192 319 0
-192 193 320 0
-193 194 321 0
-194 195 322 0
-195 196 323 0
-196 197 324 0
-197 198 325 0
-198 199 326 0
-199 200 327 0
-200 328 362 0
-201 330 387 0
-202 201 332 0
-203 202 334 0
-204 203 336 0
-205 204 338 0
-206 205 340 0
-207 206 342 0
-208 207 344 0
-209 208 346 0
-210 209 348 0
-211 210 350 0
-387 201 0
-201 202 0
-202 203 0
-203 204 0
-204 205 0
-205 206 0
-206 207 0
-207 208 0
-208 209 0
-209 210 0
-210 211 0
-212 376 0
-213 212 0
-214 213 0
-215 214 0
-216 215 0
-217 216 0
-218 217 0
-219 218 0
-220 219 0
-221 220 0
-363 221 0
-376 212 330 0
-212 213 332 0
-213 214 334 0
-214 215 336 0
-215 216 338 0
-216 217 340 0
-217 218 342 0
-218 219 344 0
-219 220 346 0
-220 221 348 0
-221 350 363 0
-222 -234 0
-223 -235 0
-224 -236 0
-225 -237 0
-226 -238 0
-227 -239 0
-228 -240 0
-229 -241 0
-230 -242 0
-231 -243 0
-232 -244 0
-222 -246 0
-223 -247 0
-224 -248 0
-225 -249 0
-226 -250 0
-227 -251 0
-228 -252 0
-229 -253 0
-230 -254 0
-231 -255 0
-232 -256 0
-222 -258 0
-223 -259 0
-224 -260 0
-225 -261 0
-226 -262 0
-227 -263 0
-228 -264 0
-229 -265 0
-230 -266 0
-231 -267 0
-232 -268 0
-222 -270 0
-223 -271 0
-224 -272 0
-225 -273 0
-226 -274 0
-227 -275 0
-228 -276 0
-229 -277 0
-230 -278 0
-231 -279 0
-232 -280 0
-222 -282 0
-223 -283 0
-224 -284 0
-225 -285 0
-226 -286 0
-227 -287 0
-228 -288 0
-229 -289 0
-230 -290 0
-231 -291 0
-232 -292 0
-222 -294 0
-223 -295 0
-224 -296 0
-225 -297 0
-226 -298 0
-227 -299 0
-228 -300 0
-229 -301 0
-230 -302 0
-231 -303 0
-232 -304 0
-222 -306 0
-223 -307 0
-224 -308 0
-225 -309 0
-226 -310 0
-227 -311 0
-228 -312 0
-229 -313 0
-230 -314 0
-231 -315 0
-232 -316 0
-222 -318 0
-223 -319 0
-224 -320 0
-225 -321 0
-226 -322 0
-227 -323 0
-228 -324 0
-229 -325 0
-230 -326 0
-231 -327 0
-232 -328 0
-222 -330 0
-223 -332 0
-224 -334 0
-225 -336 0
-226 -338 0
-227 -340 0
-228 -342 0
-229 -344 0
-230 -346 0
-231 -348 0
-232 -350 0
-222 -331 0
-223 -333 0
-224 -335 0
-225 -337 0
-226 -339 0
-227 -341 0
-228 -343 0
-229 -345 0
-230 -347 0
-231 -349 0
-232 -351 0
-234 -246 0
-235 -247 0
-236 -248 0
-237 -249 0
-238 -250 0
-239 -251 0
-240 -252 0
-241 -253 0
-242 -254 0
-243 -255 0
-244 -256 0
-234 -258 0
-235 -259 0
-236 -260 0
-237 -261 0
-238 -262 0
-239 -263 0
-240 -264 0
-241 -265 0
-242 -266 0
-243 -267 0
-244 -268 0
-234 -270 0
-235 -271 0
-236 -272 0
-237 -273 0
-238 -274 0
-239 -275 0
-240 -276 0
-241 -277 0
-242 -278 0
-243 -279 0
-244 -280 0
-234 -282 0
-235 -283 0
-236 -284 0
-237 -285 0
-238 -286 0
-239 -287 0
-240 -288 0
-241 -289 0
-242 -290 0
-243 -291 0
-244 -292 0
-234 -294 0
-235 -295 0
-236 -296 0
-237 -297 0
-238 -298 0
-239 -299 0
-240 -300 0
-241 -301 0
-242 -302 0
-243 -303 0
-244 -304 0
-234 -306 0
-235 -307 0
-236 -308 0
-237 -309 0
-238 -310 0
-239 -311 0
-240 -312 0
-241 -313 0
-242 -314 0
-243 -315 0
-244 -316 0
-234 -318 0
-235 -319 0
-236 -320 0
-237 -321 0
-238 -322 0
-239 -323 0
-240 -324 0
-241 -325 0
-242 -326 0
-243 -327 0
-244 -328 0
-234 -330 0
-235 -332 0
-236 -334 0
-237 -336 0
-238 -338 0
-239 -340 0
-240 -342 0
-241 -344 0
-242 -346 0
-243 -348 0
-244 -350 0
-234 -331 0
-235 -333 0
-236 -335 0
-237 -337 0
-238 -339 0
-239 -341 0
-240 -343 0
-241 -345 0
-242 -347 0
-243 -349 0
-244 -351 0
-246 -258 0
-247 -259 0
-248 -260 0
-249 -261 0
-250 -262 0
-251 -263 0
-252 -264 0
-253 -265 0
-254 -266 0
-255 -267 0
-256 -268 0
-246 -270 0
-247 -271 0
-248 -272 0
-249 -273 0
-250 -274 0
-251 -275 0
-252 -276 0
-253 -277 0
-254 -278 0
-255 -279 0
-256 -280 0
-246 -282 0
-247 -283 0
-248 -284 0
-249 -285 0
-250 -286 0
-251 -287 0
-252 -288 0
-253 -289 0
-254 -290 0
-255 -291 0
-256 -292 0
-246 -294 0
-247 -295 0
-248 -296 0
-249 -297 0
-250 -298 0
-251 -299 0
-252 -300 0
-253 -301 0
-254 -302 0
-255 -303 0
-256 -304 0
-246 -306 0
-247 -307 0
-248 -308 0
-249 -309 0
-250 -310 0
-251 -311 0
-252 -312 0
-253 -313 0
-254 -314 0
-255 -315 0
-256 -316 0
-246 -318 0
-247 -319 0
-248 -320 0
-249 -321 0
-250 -322 0
-251 -323 0
-252 -324 0
-253 -325 0
-254 -326 0
-255 -327 0
-256 -328 0
-246 -330 0
-247 -332 0
-248 -334 0
-249 -336 0
-250 -338 0
-251 -340 0
-252 -342 0
-253 -344 0
-254 -346 0
-255 -348 0
-256 -350 0
-246 -331 0
-247 -333 0
-248 -335 0
-249 -337 0
-250 -339 0
-251 -341 0
-252 -343 0
-253 -345 0
-254 -347 0
-255 -349 0
-256 -351 0
-258 -270 0
-259 -271 0
-260 -272 0
-261 -273 0
-262 -274 0
-263 -275 0
-264 -276 0
-265 -277 0
-266 -278 0
-267 -279 0
-268 -280 0
-258 -282 0
-259 -283 0
-260 -284 0
-261 -285 0
-262 -286 0
-263 -287 0
-264 -288 0
-265 -289 0
-266 -290 0
-267 -291 0
-268 -292 0
-258 -294 0
-259 -295 0
-260 -296 0
-261 -297 0
-262 -298 0
-263 -299 0
-264 -300 0
-265 -301 0
-266 -302 0
-267 -303 0
-268 -304 0
-258 -306 0
-259 -307 0
-260 -308 0
-261 -309 0
-262 -310 0
-263 -311 0
-264 -312 0
-265 -313 0
-266 -314 0
-267 -315 0
-268 -316 0
-258 -318 0
-259 -319 0
-260 -320 0
-261 -321 0
-262 -322 0
-263 -323 0
-264 -324 0
-265 -325 0
-266 -326 0
-267 -327 0
-268 -328 0
-258 -330 0
-259 -332 0
-260 -334 0
-261 -336 0
-262 -338 0
-263 -340 0
-264 -342 0
-265 -344 0
-266 -346 0
-267 -348 0
-268 -350 0
-258 -331 0
-259 -333 0
-260 -335 0
-261 -337 0
-262 -339 0
-263 -341 0
-264 -343 0
-265 -345 0
-266 -347 0
-267 -349 0
-268 -351 0
-270 -282 0
-271 -283 0
-272 -284 0
-273 -285 0
-274 -286 0
-275 -287 0
-276 -288 0
-277 -289 0
-278 -290 0
-279 -291 0
-280 -292 0
-270 -294 0
-271 -295 0
-272 -296 0
-273 -297 0
-274 -298 0
-275 -299 0
-276 -300 0
-277 -301 0
-278 -302 0
-279 -303 0
-280 -304 0
-270 -306 0
-271 -307 0
-272 -308 0
-273 -309 0
-274 -310 0
-275 -311 0
-276 -312 0
-277 -313 0
-278 -314 0
-279 -315 0
-280 -316 0
-270 -318 0
-271 -319 0
-272 -320 0
-273 -321 0
-274 -322 0
-275 -323 0
-276 -324 0
-277 -325 0
-278 -326 0
-279 -327 0
-280 -328 0
-270 -330 0
-271 -332 0
-272 -334 0
-273 -336 0
-274 -338 0
-275 -340 0
-276 -342 0
-277 -344 0
-278 -346 0
-279 -348 0
-280 -350 0
-270 -331 0
-271 -333 0
-272 -335 0
-273 -337 0
-274 -339 0
-275 -341 0
-276 -343 0
-277 -345 0
-278 -347 0
-279 -349 0
-280 -351 0
-282 -294 0
-283 -295 0
-284 -296 0
-285 -297 0
-286 -298 0
-287 -299 0
-288 -300 0
-289 -301 0
-290 -302 0
-291 -303 0
-292 -304 0
-282 -306 0
-283 -307 0
-284 -308 0
-285 -309 0
-286 -310 0
-287 -311 0
-288 -312 0
-289 -313 0
-290 -314 0
-291 -315 0
-292 -316 0
-282 -318 0
-283 -319 0
-284 -320 0
-285 -321 0
-286 -322 0
-287 -323 0
-288 -324 0
-289 -325 0
-290 -326 0
-291 -327 0
-292 -328 0
-282 -330 0
-283 -332 0
-284 -334 0
-285 -336 0
-286 -338 0
-287 -340 0
-288 -342 0
-289 -344 0
-290 -346 0
-291 -348 0
-292 -350 0
-282 -331 0
-283 -333 0
-284 -335 0
-285 -337 0
-286 -339 0
-287 -341 0
-288 -343 0
-289 -345 0
-290 -347 0
-291 -349 0
-292 -351 0
-294 -306 0
-295 -307 0
-296 -308 0
-297 -309 0
-298 -310 0
-299 -311 0
-300 -312 0
-301 -313 0
-302 -314 0
-303 -315 0
-304 -316 0
-294 -318 0
-295 -319 0
-296 -320 0
-297 -321 0
-298 -322 0
-299 -323 0
-300 -324 0
-301 -325 0
-302 -326 0
-303 -327 0
-304 -328 0
-294 -330 0
-295 -332 0
-296 -334 0
-297 -336 0
-298 -338 0
-299 -340 0
-300 -342 0
-301 -344 0
-302 -346 0
-303 -348 0
-304 -350 0
-294 -331 0
-295 -333 0
-296 -335 0
-297 -337 0
-298 -339 0
-299 -341 0
-300 -343 0
-301 -345 0
-302 -347 0
-303 -349 0
-304 -351 0
-306 -318 0
-307 -319 0
-308 -320 0
-309 -321 0
-310 -322 0
-311 -323 0
-312 -324 0
-313 -325 0
-314 -326 0
-315 -327 0
-316 -328 0
-306 -330 0
-307 -332 0
-308 -334 0
-309 -336 0
-310 -338 0
-311 -340 0
-312 -342 0
-313 -344 0
-314 -346 0
-315 -348 0
-316 -350 0
-306 -331 0
-307 -333 0
-308 -335 0
-309 -337 0
-310 -339 0
-311 -341 0
-312 -343 0
-313 -345 0
-314 -347 0
-315 -349 0
-316 -351 0
-318 -330 0
-319 -332 0
-320 -334 0
-321 -336 0
-322 -338 0
-323 -340 0
-324 -342 0
-325 -344 0
-326 -346 0
-327 -348 0
-328 -350 0
-318 -331 0
-319 -333 0
-320 -335 0
-321 -337 0
-322 -339 0
-323 -341 0
-324 -343 0
-325 -345 0
-326 -347 0
-327 -349 0
-328 -351 0
-330 -331 0
-332 -333 0
-334 -335 0
-336 -337 0
-338 -339 0
-340 -341 0
-342 -343 0
-344 -345 0
-346 -347 0
-348 -349 0
-350 -351 0
-354 0
-355 0
-356 0
-357 0
-358 0
-359 0
-360 0
-361 0
-362 0
-363 0
